p tw 52 57
1 2
2 3
11 12
12 13
13 14
14 51
15 16
16 17
17 18
18 19
19 20
19 22
20 21
3 4
21 22
21 27
22 23
23 24
24 25
25 26
26 27
27 28
28 29
29 30
30 31
4 11
4 5
31 32
32 33
33 34
34 35
35 36
36 37
37 38
37 42
38 39
39 40
40 41
5 6
41 42
41 47
42 43
43 44
44 45
45 46
46 47
47 48
48 49
49 50
50 51
6 7
51 52
7 8
8 9
9 10
10 11
10 15
